p edge 18 36
e 1 2
e 1 5
e 1 8
e 1 9
e 1 13
e 1 14
e 1 18
e 2 9
e 2 12
e 2 13
e 2 18
e 3 4
e 3 6
e 3 7
e 3 11
e 3 14
e 3 15
e 3 16
e 4 5
e 4 12
e 5 7
e 5 9
e 5 13
e 5 14
e 5 17
e 6 7
e 6 12
e 6 14
e 6 15
e 7 8
e 7 17
e 9 13
e 9 14
e 10 12
e 11 16
e 13 14
